webassembly/ejemplos_dzn/folder8_json_6.dzn
TERM = { '.', 's(2)', 's(5)', 's(4)', 'in_1', 'local_0', 'local_1', 'in_2', 's(1)', 's(0)', 's(3)', 'in_0'};
null = '.';
s = 8;
n = 9;
ndeps = 3;
max_registers_sz = 5;
NR = 2;
registers = [|'local_0', 's(1)', |'local_1', 's(5)'|];
dependencies = [|'call[function_index(0)]_1', 'i32.store_4', |'i32.store_4', 'i32.load8_s_6', |'i32.store_4', 'i32.load8_u_7'|];
GET_ENUM = { GET1, GET2, GET3, GET4, GET5, GET6, GET7};
SET_ENUM = { SET1, SET2, SET3, SET4, SET5, SET6, SET7};
TEE_ENUM = { TEE1, TEE2, TEE3, TEE4, TEE5, TEE6, TEE7};
N = 5;
OP = { 'call[function_index(0)]_1', 'i32.const_0', 'i32.store_4', 'i32.load8_s_6', 'i32.load8_u_7' };
in_ops = [3, 0, 2, 1, 1 ];
out_ops = [3, 1, 0, 1, 1 ];
in1 = ['in_0', '.', 's(5)', 's(0)', 's(3)' ];
in2 = ['in_1', '.', 's(2)', '.', '.' ];
in3 = ['in_2', '.', '.', '.', '.' ];
out1 = ['s(2)', 's(5)', '.', 's(3)', 's(4)' ];
out2 = ['s(1)', '.', '.', '.', '.' ];
out3 = ['s(0)', '.', '.', '.', '.' ];
comm = [false, false, false, false, false ];
gas = [1, 1, 1, 1, 1 ];
sz = [1, 1, 1, 1, 1 ];
stor = [true, false, true, false, false ];
lb = [ 1, 1, 1, 1, 1 ];
ub = [ 8, 8, 8, 8, 8 ];
startstack = [ 'in_0', 'in_1', 'in_2', null, null, null, null, null, null ];
endstack = [ 's(4)', null, null, null, null, null, null, null, null ];
